/*********************************************
 * OPL 12.8.0.0 Data
 * Author: Tamer Abdelmaguid
 * Input data from a specially developed application
 * for the DMOSP problem.
 * Problem name: C:\Work\DMOSP\Program\SolvedSet\DMOSP-5-10-1-0.7-1-2-1-2-1-30.dat
 *********************************************/

 nj = 10;
 nm = 6;
 no = 33;

 // Jobs data:
	 p = [ 2.00, 6.00, 9.00, 6.00, 7.00, 10.00, 10.00, 7.00, 7.00, 6.00];
	 r = [ 50.00, 0.00, 0.00, 0.00, 0.00, 39.00, 73.00, 39.00, 0.00, 104.00];

 // Machines data:
	MW = [ 1, 2, 3, 4, 4, 5];
	 a = [ 83.00, 0.00, 0.00, 64.00, 58.00, 0.00];

 // Operations data:
	OJ = [ 1, 1, 2, 2, 2, 3, 3, 3, 3, 3, 4, 4, 4, 4, 5, 5, 5, 5, 6, 6, 7, 7, 7, 7, 8, 8, 8, 8, 8, 9, 9, 9, 10];
	OW = [ 2, 3, 1, 4, 5, 1, 2, 3, 4, 5, 1, 2, 3, 4, 1, 2, 3, 5, 1, 4, 2, 3, 4, 5, 1, 2, 3, 4, 5, 1, 3, 4, 4];

 // Ordered processing times:
	d = [
		41.00,
		28.00,
		53.00,
		66.00, 76.00,
		34.00,
		54.00,
		45.00,
		26.00,
		60.00, 66.00,
		36.00,
		53.00,
		49.00,
		29.00,
		67.00, 73.00,
		37.00,
		42.00,
		32.00,
		50.00,
		53.00,
		80.00, 52.00,
		39.00,
		32.00,
		72.00, 64.00,
		35.00,
		41.00,
		37.00,
		31.00,
		73.00, 62.00,
		36.00,
		50.00,
		37.00,
		77.00, 63.00,
		74.00, 58.00
	    ];

 bigM = 1000.00;

/********************************* MOD file *************************************
 int nj = ...;         // number of jobs
 range J = 1..nj;      // set of jobs

 int nm = ...;         // total number of machines
 range M = 1..nm;      // set of all machines in the shop
 int MW[M] = ...;      // workstation # to which machine m belongs

 float a[M] = ...;     // non-negative ready time of a machine
 float r[J] = ...;     // non-negative release time of a job
 float p[J] = ...;     // priority of job j

 int no = ...;         // total number of operations
 range O = 1..no;      // set of all operations
 int OJ[O] = ...;      // index of the job to which the operation belongs
 int OW[O] = ...;      // index of the workstation to which the operation belongs

 tuple TOpMc {
   int o;    // operation index
   int m;    // machine index
 };
 setof(TOpMc) Process = { <o, m> | o in O, m in M : OW[o] == MW[m] };
 float d[Process] = ...;         // processing times of operations on machines

 tuple TJOpPair {
   int w;    // index of the first operation
   int q;    // index of the second operation
 };
 setof(TJOpPair) DefX = { <w, q> | w, q in O : OJ[w] == OJ[q] && q > w};
 dvar int x[DefX] in 0..1;

 dvar int y[Process] in 0..1;

 tuple TOpPairMc {
   int j;   // index of the first operation
   int k;   // index of the second operation
   int m;   // machine index
 };
 setof(TOpPairMc) DefZ = { <j, k, m> | j, k in O, m in M : j != k && OW[j] == OW[k] && OW[j] == MW[m]};
 dvar int z[DefZ] in 0..1;

 dvar float+ s[O];
 dvar float+ c[J];
 dvar float Cmax;
 dvar float MWFT;

 float bigM = ...;

 //minimize Cmax;     // (1)

 minimize MWFT;     // (2)

 subject to {
  MWFT_Definition:
   MWFT == sum(j in J) p[j] * (c[j] - r[j]) / nj;

  Cmax_epsilon_constraint:  // need to change the RHS value iteratively
   Cmax <= bigM;

  Constraint1:
   forall(j in J) Cmax >= c[j];           // (3)

  Constraint2:
   forall(j in J)
     forall(o in O : OJ[o] == j)
       c[j] >= s[o] + sum(m in M : OW[o] == MW[m]) d[<o, m>] * y[<o, m>];        // (4)

  Constraint3:
   forall(o in O)
      sum(m in M : OW[o] == MW[m]) y[<o, m>] == 1;          // (5)

  Constraint4:
   forall(j in J)
     forall(o in O : OJ[o] == j)
       s[o] >= r[j];                                        // (6)

  Constraint5:
   forall(o in O)
     s[o] >= sum(m in M : OW[o] == MW[m]) a[m] * y[<o, m>];        // (7)

  Constraint6:
   forall(j in J)
     forall(w in O : OJ[w] == j)
       forall(q in O : OJ[q] == j && q > w)
         s[q] - s[w] >= sum(m in M : OW[w] == MW[m]) d[<w, m>] * y[<w, m>]
                        - bigM * (1 - x[<w, q>]);                                  // (8)

  Constraint7:
   forall(j in J)
     forall(w in O : OJ[w] == j)
       forall(q in O : OJ[q] == j && q > w)
         s[w] - s[q] >= sum(m in M : OW[q] == MW[m]) d[<q, m>] * y[<q, m>]
                        - bigM * x[<w, q>];                                        // (9)

  Constraint8:
   forall(j in O)
     forall(k in O : j < k)
       forall(m in M : OW[j] == MW[m] && OW[k] == MW[m])
         z[<j, k, m>] + z[<k, j, m>] <= (y[<j, m>] + y[<k, m>]) / 2;              // (10)

  Constraint9:
   forall(j in O)
     forall(k in O : j < k)
       forall(m in M : OW[j] == MW[m] && OW[k] == MW[m])
         z[<j, k, m>] + z[<k, j, m>] >= y[<j, m>] + y[<k, m>] - 1;                // (11)

  Constraint10:
   forall(j in O)
     forall(k in O : j != k && OW[k] == OW[j])
        s[k] - s[j] >= sum(m in M : OW[j] == MW[m]) d[<j, m>] * y[<j, m>]
                       - bigM * (1 - sum(m in M : OW[j] == MW[m]) z[<j, k, m>]);  // (12)
}
 ************************************************************************************/

/*main
{
 thisOplModel.generate();
 cplex.exportModel("C:\Work\DMOSP\Program\CPLEX\lpmodel.lp");
}/**/
